
Gurobi 9.5.1 (linux64) logging started Sat Jul  2 16:44:14 2022

Set parameter LogFile to value "../results/logs/log_web-hudong.e_5_250_2022_07_02_15_52.log"
Gurobi Optimizer version 9.5.1 build v9.5.1rc2 (linux64)
Thread count: 8 physical cores, 8 logical processors, using up to 8 threads
Optimize a model with 80321 rows, 3949310 columns and 1502795 nonzeros
Model fingerprint: 0x819de37b
Coefficient statistics:
  Matrix range     [1e+00, 5e+00]
  Objective range  [1e+00, 1e+00]
  Bounds range     [1e+00, 1e+00]
  RHS range        [1e+00, 2e+02]

Concurrent LP optimizer: primal simplex, dual simplex, and barrier
Showing barrier log only...

Presolve removed 50016 rows and 3903673 columns
Presolve time: 2.41s
Presolved: 30305 rows, 45637 columns, 119909 nonzeros

Ordering time: 0.00s

Barrier statistics:
 AA' NZ     : 3.354e+04
 Factor NZ  : 7.127e+04 (roughly 12 MB of memory)
 Factor Ops : 5.940e+05 (less than 1 second per iteration)
 Threads    : 1

                  Objective                Residual
Iter       Primal          Dual         Primal    Dual     Compl     Time
   0   1.40794869e+06  1.29600877e+06  4.64e+04 3.88e+01  1.55e+03     3s
   1   1.27409579e+06  1.36710428e+06  2.04e+04 1.71e-13  6.53e+02     3s
   2   1.10002087e+06  1.33538615e+06  2.08e+03 1.14e-13  7.06e+01     3s
   3   1.08199508e+06  1.25742420e+06  1.09e+02 9.24e-14  6.93e+00     3s
   4   1.08190708e+06  1.11934123e+06  2.55e+01 1.26e-13  1.26e+00     3s
   5   1.08293207e+06  1.09606852e+06  3.39e+00 1.04e-13  3.28e-01     3s
   6   1.08379625e+06  1.09010678e+06  1.61e+00 7.68e-14  1.48e-01     3s
   7   1.08504968e+06  1.08888174e+06  5.91e-01 5.68e-14  8.63e-02     3s
   8   1.08581543e+06  1.08766829e+06  1.70e-01 4.26e-14  4.08e-02     3s
   9   1.08590816e+06  1.08715856e+06  1.26e-01 3.04e-14  2.75e-02     3s
  10   1.08604569e+06  1.08693761e+06  6.05e-02 2.84e-14  1.95e-02     3s
  11   1.08607865e+06  1.08679588e+06  4.66e-02 2.60e-14  1.57e-02     3s
  12   1.08612790e+06  1.08659019e+06  2.66e-02 1.57e-14  1.01e-02     3s
  13   1.08615646e+06  1.08648605e+06  1.68e-02 1.42e-14  7.19e-03     3s
  14   1.08616866e+06  1.08639781e+06  1.36e-02 1.07e-14  5.00e-03     3s
  15   1.08617940e+06  1.08635037e+06  1.10e-02 1.42e-14  3.73e-03     3s
  16   1.08619407e+06  1.08633581e+06  7.89e-03 8.42e-15  3.09e-03     3s
  17   1.08621152e+06  1.08630067e+06  4.61e-03 2.13e-14  1.94e-03     3s
  18   1.08622047e+06  1.08626951e+06  3.15e-03 1.42e-14  1.07e-03     3s
  19   1.08623167e+06  1.08625702e+06  1.40e-03 7.11e-15  5.53e-04     3s
  20   1.08623340e+06  1.08625080e+06  1.16e-03 7.11e-15  3.80e-04     3s
  21   1.08623661e+06  1.08624873e+06  7.24e-04 7.28e-15  2.65e-04     3s
  22   1.08623746e+06  1.08624722e+06  6.13e-04 2.13e-14  2.13e-04     3s
  23   1.08624128e+06  1.08624450e+06  1.45e-04 7.11e-15  7.02e-05     3s
  24   1.08624245e+06  1.08624264e+06  6.57e-06 1.42e-14  4.15e-06     3s
  25   1.08624255e+06  1.08624255e+06  8.66e-09 1.42e-14  1.87e-08     3s
  26   1.08624255e+06  1.08624255e+06  9.57e-14 1.42e-14  6.74e-14     3s

Barrier solved model in 26 iterations and 2.66 seconds (1.71 work units)
Optimal objective 1.08624255e+06

Crossover log...

    1836 DPushes remaining with DInf 0.0000000e+00                 3s
       0 DPushes remaining with DInf 0.0000000e+00                 3s

      85 PPushes remaining with PInf 0.0000000e+00                 3s
       0 PPushes remaining with PInf 0.0000000e+00                 3s

  Push phase complete: Pinf 0.0000000e+00, Dinf 3.8333225e-13      3s

Iteration    Objective       Primal Inf.    Dual Inf.      Time
     960    1.0862425e+06   0.000000e+00   0.000000e+00      3s

Use crossover to convert LP symmetric solution to basic solution...
Crossover log...

       0 DPushes remaining with DInf 0.0000000e+00                 3s

      67 PPushes remaining with PInf 0.0000000e+00                 3s
       0 PPushes remaining with PInf 0.0000000e+00                 3s

  Push phase complete: Pinf 0.0000000e+00, Dinf 9.1271608e-14      3s

Extra simplex iterations after uncrush: 103
Iteration    Objective       Primal Inf.    Dual Inf.      Time
    1244    1.0862425e+06   0.000000e+00   0.000000e+00      3s

Solved with primal simplex
Solved in 7951 iterations and 3.73 seconds (2.36 work units)
Optimal objective  1.086242547e+06
